* Problem:    neos-3610040-iskar-pow2-prescaled
* Class:      LP
* Rows:       335
* Columns:    764
* Non-zeros:  1357
* Format:     Free MPS
*
NAME neos-3610040-iskar-pow2-prescaled
ROWS
 N R0000000
 E R0000001
 E R0000002
 E R0000003
 E R0000004
 E R0000005
 E R0000006
 E R0000007
 E R0000008
 E R0000009
 E R0000010
 E R0000011
 E R0000012
 E R0000013
 E R0000014
 E R0000015
 E R0000016
 E R0000017
 E R0000018
 E R0000019
 E R0000020
 E R0000021
 E R0000022
 E R0000023
 E R0000024
 E R0000025
 E R0000026
 E R0000027
 E R0000028
 E R0000029
 E R0000030
 E R0000031
 E R0000032
 E R0000033
 E R0000034
 E R0000035
 E R0000036
 E R0000037
 E R0000038
 E R0000039
 E R0000040
 E R0000041
 E R0000042
 E R0000043
 E R0000044
 E R0000045
 E R0000046
 E R0000047
 E R0000048
 E R0000049
 E R0000050
 E R0000051
 E R0000052
 E R0000053
 E R0000054
 E R0000055
 E R0000056
 E R0000057
 E R0000058
 E R0000059
 E R0000060
 E R0000061
 E R0000062
 E R0000063
 E R0000064
 E R0000065
 E R0000066
 E R0000067
 E R0000068
 E R0000069
 E R0000070
 E R0000071
 E R0000072
 E R0000073
 E R0000074
 E R0000075
 E R0000076
 E R0000077
 E R0000078
 E R0000079
 E R0000080
 E R0000081
 E R0000082
 E R0000083
 E R0000084
 E R0000085
 E R0000086
 E R0000087
 E R0000088
 E R0000089
 E R0000090
 E R0000091
 E R0000092
 E R0000093
 E R0000094
 E R0000095
 E R0000096
 E R0000097
 E R0000098
 E R0000099
 E R0000100
 E R0000101
 E R0000102
 E R0000103
 E R0000104
 E R0000105
 E R0000106
 E R0000107
 E R0000108
 E R0000109
 E R0000110
 E R0000111
 E R0000112
 E R0000113
 E R0000114
 E R0000115
 E R0000116
 E R0000117
 E R0000118
 E R0000119
 E R0000120
 E R0000121
 E R0000122
 E R0000123
 E R0000124
 E R0000125
 E R0000126
 E R0000127
 E R0000128
 E R0000129
 E R0000130
 E R0000131
 E R0000132
 E R0000133
 E R0000134
 E R0000135
 E R0000136
 E R0000137
 E R0000138
 E R0000139
 E R0000140
 E R0000141
 E R0000142
 E R0000143
 E R0000144
 E R0000145
 E R0000146
 E R0000147
 E R0000148
 E R0000149
 E R0000150
 E R0000151
 E R0000152
 E R0000153
 E R0000154
 E R0000155
 E R0000156
 E R0000157
 E R0000158
 E R0000159
 E R0000160
 E R0000161
 E R0000162
 E R0000163
 E R0000164
 E R0000165
 E R0000166
 E R0000167
 E R0000168
 E R0000169
 E R0000170
 E R0000171
 E R0000172
 E R0000173
 E R0000174
 E R0000175
 E R0000176
 E R0000177
 E R0000178
 E R0000179
 E R0000180
 E R0000181
 E R0000182
 E R0000183
 E R0000184
 E R0000185
 E R0000186
 E R0000187
 E R0000188
 E R0000189
 E R0000190
 E R0000191
 E R0000192
 E R0000193
 E R0000194
 E R0000195
 E R0000196
 E R0000197
 E R0000198
 E R0000199
 E R0000200
 E R0000201
 E R0000202
 E R0000203
 E R0000204
 E R0000205
 E R0000206
 E R0000207
 E R0000208
 E R0000209
 E R0000210
 E R0000211
 E R0000212
 E R0000213
 E R0000214
 E R0000215
 E R0000216
 E R0000217
 E R0000218
 E R0000219
 E R0000220
 E R0000221
 E R0000222
 E R0000223
 E R0000224
 E R0000225
 E R0000226
 E R0000227
 E R0000228
 E R0000229
 E R0000230
 E R0000231
 E R0000232
 E R0000233
 E R0000234
 E R0000235
 E R0000236
 E R0000237
 E R0000238
 E R0000239
 E R0000240
 E R0000241
 E R0000242
 E R0000243
 E R0000244
 E R0000245
 E R0000246
 E R0000247
 E R0000248
 E R0000249
 E R0000250
 E R0000251
 E R0000252
 E R0000253
 E R0000254
 E R0000255
 E R0000256
 E R0000257
 E R0000258
 E R0000259
 E R0000260
 E R0000261
 E R0000262
 E R0000263
 E R0000264
 E R0000265
 E R0000266
 E R0000267
 E R0000268
 E R0000269
 E R0000270
 E R0000271
 E R0000272
 E R0000273
 E R0000274
 E R0000275
 E R0000276
 E R0000277
 E R0000278
 E R0000279
 E R0000280
 E R0000281
 E R0000282
 E R0000283
 E R0000284
 E R0000285
 E R0000286
 E R0000287
 E R0000288
 E R0000289
 E R0000290
 E R0000291
 E R0000292
 E R0000293
 E R0000294
 E R0000295
 E R0000296
 E R0000297
 E R0000298
 E R0000299
 E R0000300
 E R0000301
 E R0000302
 E R0000303
 E R0000304
 E R0000305
 E R0000306
 E R0000307
 E R0000308
 E R0000309
 E R0000310
 E R0000311
 E R0000312
 E R0000313
 E R0000314
 E R0000315
 E R0000316
 E R0000317
 E R0000318
 E R0000319
 E R0000320
 E R0000321
 E R0000322
 E R0000323
 E R0000324
 E R0000325
 E R0000326
 E R0000327
 E R0000328
 E R0000329
 E R0000330
 E R0000331
 E R0000332
 E R0000333
 E R0000334
 E R0000335
COLUMNS
 c0 R0000002 -4
 c1 R0000003 -2 R0000002 2
 c2 R0000004 -2 R0000003 2
 c3 R0000005 -2 R0000004 2
 c4 R0000006 -2 R0000005 2
 c5 R0000007 -2 R0000006 2
 c6 R0000008 -2 R0000007 2
 c7 R0000009 -2 R0000008 2
 c8 R0000010 -2 R0000009 2
 c9 R0000011 -2 R0000010 2
 c10 R0000012 -2 R0000011 2
 c11 R0000013 -2 R0000012 2
 c12 R0000014 -2 R0000013 2
 c13 R0000015 -2 R0000014 2
 c14 R0000159 -2 R0000015 2
 c15 R0000016 -4
 c16 R0000017 -2 R0000016 2
 c17 R0000018 -2 R0000017 2
 c18 R0000019 -2 R0000018 2
 c19 R0000020 -2 R0000019 2
 c20 R0000021 -2 R0000020 2
 c21 R0000022 -2 R0000021 2
 c22 R0000023 -2 R0000022 2
 c23 R0000024 -2 R0000023 2
 c24 R0000025 -2 R0000024 2
 c25 R0000026 -2 R0000025 2
 c26 R0000027 -2 R0000026 2
 c27 R0000028 -2 R0000027 2
 c28 R0000029 -2 R0000028 2
 c29 R0000030 -2 R0000029 2
 c30 R0000031 -2 R0000030 2
 c31 R0000160 -2 R0000031 2
 c32 R0000032 -4
 c33 R0000033 -4 R0000032 4
 c34 R0000034 -4 R0000033 4
 c35 R0000035 -4 R0000034 4
 c36 R0000036 -4 R0000035 4
 c37 R0000037 -4 R0000036 4
 c38 R0000038 -4 R0000037 4
 c39 R0000039 -4 R0000038 4
 c40 R0000040 -4 R0000039 4
 c41 R0000041 -4 R0000040 4
 c42 R0000042 -4 R0000041 4
 c43 R0000043 -4 R0000042 4
 c44 R0000044 -4 R0000043 4
 c45 R0000045 -4 R0000044 4
 c46 R0000046 -4 R0000045 4
 c47 R0000047 -2 R0000046 2
 c48 R0000161 -2 R0000047 2
 c49 R0000048 -4
 c50 R0000049 -2 R0000048 2
 c51 R0000050 -2 R0000049 2
 c52 R0000051 -2 R0000050 2
 c53 R0000052 -2 R0000051 2
 c54 R0000053 -2 R0000052 2
 c55 R0000054 -2 R0000053 2
 c56 R0000055 -2 R0000054 2
 c57 R0000056 -2 R0000055 2
 c58 R0000057 -2 R0000056 2
 c59 R0000058 -2 R0000057 2
 c60 R0000059 -2 R0000058 2
 c61 R0000060 -2 R0000059 2
 c62 R0000061 -2 R0000060 2
 c63 R0000062 -2 R0000061 2
 c64 R0000063 -2 R0000062 2
 c65 R0000064 -2 R0000063 2
 c66 R0000065 -2 R0000064 2
 c67 R0000066 -2 R0000065 2
 c68 R0000162 -2 R0000066 2
 c69 R0000067 -4
 c70 R0000068 -4 R0000067 4
 c71 R0000069 -4 R0000068 4
 c72 R0000070 -4 R0000069 4
 c73 R0000071 -4 R0000070 4
 c74 R0000072 -4 R0000071 4
 c75 R0000073 -4 R0000072 4
 c76 R0000074 -4 R0000073 4
 c77 R0000075 -4 R0000074 4
 c78 R0000076 -4 R0000075 4
 c79 R0000077 -4 R0000076 4
 c80 R0000078 -4 R0000077 4
 c81 R0000079 -2 R0000078 2
 c82 R0000080 -2 R0000079 2
 c83 R0000081 -2 R0000080 2
 c84 R0000082 -2 R0000081 2
 c85 R0000163 -2 R0000082 2
 c86 R0000083 -2
 c87 R0000084 -2 R0000083 2
 c88 R0000085 -2 R0000084 2
 c89 R0000086 -2 R0000085 2
 c90 R0000087 -2 R0000086 2
 c91 R0000088 -2 R0000087 2
 c92 R0000089 -2 R0000088 2
 c93 R0000090 -2 R0000089 2
 c94 R0000091 -2 R0000090 2
 c95 R0000092 -2 R0000091 2
 c96 R0000093 -2 R0000092 2
 c97 R0000094 -2 R0000093 2
 c98 R0000095 -2 R0000094 2
 c99 R0000164 -2 R0000095 2
 c100 R0000096 -4
 c101 R0000097 -4 R0000096 4
 c102 R0000098 -4 R0000097 4
 c103 R0000099 -4 R0000098 4
 c104 R0000100 -4 R0000099 4
 c105 R0000101 -4 R0000100 4
 c106 R0000102 -4 R0000101 4
 c107 R0000103 -4 R0000102 4
 c108 R0000104 -4 R0000103 4
 c109 R0000105 -4 R0000104 4
 c110 R0000106 -2 R0000105 2
 c111 R0000107 -2 R0000106 2
 c112 R0000108 -2 R0000107 2
 c113 R0000109 -2 R0000108 2
 c114 R0000110 -4 R0000109 4
 c115 R0000111 -2 R0000110 2
 c116 R0000165 -2 R0000111 2
 c117 R0000112 -2
 c118 R0000113 -2 R0000112 2
 c119 R0000114 -2 R0000113 2
 c120 R0000115 -2 R0000114 2
 c121 R0000116 -2 R0000115 2
 c122 R0000117 -2 R0000116 2
 c123 R0000118 -2 R0000117 2
 c124 R0000119 -2 R0000118 2
 c125 R0000120 -2 R0000119 2
 c126 R0000121 -2 R0000120 2
 c127 R0000122 -2 R0000121 2
 c128 R0000123 -2 R0000122 2
 c129 R0000124 -2 R0000123 2
 c130 R0000125 -2 R0000124 2
 c131 R0000166 -2 R0000125 2
 c132 R0000126 -4
 c133 R0000127 -2 R0000126 2
 c134 R0000128 -2 R0000127 2
 c135 R0000129 -2 R0000128 2
 c136 R0000130 -2 R0000129 2
 c137 R0000131 -2 R0000130 2
 c138 R0000132 -2 R0000131 2
 c139 R0000133 -2 R0000132 2
 c140 R0000134 -2 R0000133 2
 c141 R0000135 -2 R0000134 2
 c142 R0000136 -2 R0000135 2
 c143 R0000137 -2 R0000136 2
 c144 R0000138 -2 R0000137 2
 c145 R0000167 -2 R0000138 2
 c146 R0000139 -4
 c147 R0000140 -4 R0000139 4
 c148 R0000141 -4 R0000140 4
 c149 R0000142 -4 R0000141 4
 c150 R0000143 -4 R0000142 4
 c151 R0000144 -4 R0000143 4
 c152 R0000145 -4 R0000144 4
 c153 R0000146 -4 R0000145 4
 c154 R0000147 -4 R0000146 4
 c155 R0000148 -4 R0000147 4
 c156 R0000149 -4 R0000148 4
 c157 R0000150 -4 R0000149 4
 c158 R0000151 -2 R0000150 2
 c159 R0000152 -2 R0000151 2
 c160 R0000153 -2 R0000152 2
 c161 R0000154 -2 R0000153 2
 c162 R0000155 -2 R0000154 2
 c163 R0000156 -2 R0000155 2
 c164 R0000157 -2 R0000156 2
 c165 R0000158 -2 R0000157 2
 c166 R0000168 -2 R0000158 2
 c167 R0000169 2
 c168 R0000170 2 R0000169 -2
 c169 R0000171 2 R0000170 -2
 c170 R0000172 2 R0000171 -2
 c171 R0000173 2 R0000172 -2
 c172 R0000174 2 R0000173 -2
 c173 R0000175 2 R0000174 -2
 c174 R0000176 2 R0000175 -2
 c175 R0000177 2 R0000176 -2
 c176 R0000178 2 R0000177 -2
 c177 R0000179 2 R0000178 -2
 c178 R0000180 2 R0000179 -2
 c179 R0000181 2 R0000180 -2
 c180 R0000182 2 R0000181 -2
 c181 R0000183 2 R0000182 -2
 c182 R0000183 -2 R0000159 2
 c183 R0000184 2
 c184 R0000185 2 R0000184 -2
 c185 R0000186 2 R0000185 -2
 c186 R0000187 2 R0000186 -2
 c187 R0000188 2 R0000187 -2
 c188 R0000189 2 R0000188 -2
 c189 R0000190 2 R0000189 -2
 c190 R0000191 2 R0000190 -2
 c191 R0000192 2 R0000191 -2
 c192 R0000193 2 R0000192 -2
 c193 R0000194 2 R0000193 -2
 c194 R0000195 2 R0000194 -2
 c195 R0000196 2 R0000195 -2
 c196 R0000197 2 R0000196 -2
 c197 R0000198 2 R0000197 -2
 c198 R0000199 2 R0000198 -2
 c199 R0000200 2 R0000199 -2
 c200 R0000200 -2 R0000160 2
 c201 R0000201 2
 c202 R0000202 2 R0000201 -2
 c203 R0000203 2 R0000202 -2
 c204 R0000204 2 R0000203 -2
 c205 R0000205 2 R0000204 -2
 c206 R0000206 2 R0000205 -2
 c207 R0000207 2 R0000206 -2
 c208 R0000208 2 R0000207 -2
 c209 R0000209 2 R0000208 -2
 c210 R0000210 2 R0000209 -2
 c211 R0000211 2 R0000210 -2
 c212 R0000212 2 R0000211 -2
 c213 R0000213 2 R0000212 -2
 c214 R0000214 2 R0000213 -2
 c215 R0000215 2 R0000214 -2
 c216 R0000216 2 R0000215 -2
 c217 R0000217 2 R0000216 -2
 c218 R0000217 -2 R0000161 2
 c219 R0000218 2
 c220 R0000219 2 R0000218 -2
 c221 R0000220 2 R0000219 -2
 c222 R0000221 2 R0000220 -2
 c223 R0000222 2 R0000221 -2
 c224 R0000223 2 R0000222 -2
 c225 R0000224 2 R0000223 -2
 c226 R0000225 2 R0000224 -2
 c227 R0000226 2 R0000225 -2
 c228 R0000227 2 R0000226 -2
 c229 R0000228 2 R0000227 -2
 c230 R0000229 2 R0000228 -2
 c231 R0000230 2 R0000229 -2
 c232 R0000231 2 R0000230 -2
 c233 R0000232 2 R0000231 -2
 c234 R0000233 2 R0000232 -2
 c235 R0000234 2 R0000233 -2
 c236 R0000235 2 R0000234 -2
 c237 R0000236 2 R0000235 -2
 c238 R0000237 2 R0000236 -2
 c239 R0000237 -2 R0000162 2
 c240 R0000238 4
 c241 R0000239 4 R0000238 -4
 c242 R0000240 4 R0000239 -4
 c243 R0000241 4 R0000240 -4
 c244 R0000242 4 R0000241 -4
 c245 R0000243 4 R0000242 -4
 c246 R0000244 4 R0000243 -4
 c247 R0000245 4 R0000244 -4
 c248 R0000246 4 R0000245 -4
 c249 R0000247 4 R0000246 -4
 c250 R0000248 4 R0000247 -4
 c251 R0000249 4 R0000248 -4
 c252 R0000250 2 R0000249 -2
 c253 R0000251 2 R0000250 -2
 c254 R0000252 2 R0000251 -2
 c255 R0000253 2 R0000252 -2
 c256 R0000254 2 R0000253 -2
 c257 R0000254 -2 R0000163 2
 c258 R0000255 4
 c259 R0000256 4 R0000255 -4
 c260 R0000257 4 R0000256 -4
 c261 R0000258 4 R0000257 -4
 c262 R0000259 4 R0000258 -4
 c263 R0000260 4 R0000259 -4
 c264 R0000261 2 R0000260 -2
 c265 R0000262 2 R0000261 -2
 c266 R0000263 2 R0000262 -2
 c267 R0000264 2 R0000263 -2
 c268 R0000265 2 R0000264 -2
 c269 R0000266 2 R0000265 -2
 c270 R0000267 2 R0000266 -2
 c271 R0000268 2 R0000267 -2
 c272 R0000268 -2 R0000164 2
 c273 R0000269 4
 c274 R0000270 2 R0000269 -2
 c275 R0000271 2 R0000270 -2
 c276 R0000272 2 R0000271 -2
 c277 R0000273 2 R0000272 -2
 c278 R0000274 2 R0000273 -2
 c279 R0000275 2 R0000274 -2
 c280 R0000276 2 R0000275 -2
 c281 R0000277 4 R0000276 -4
 c282 R0000278 2 R0000277 -2
 c283 R0000279 2 R0000278 -2
 c284 R0000280 2 R0000279 -2
 c285 R0000281 2 R0000280 -2
 c286 R0000282 2 R0000281 -2
 c287 R0000283 2 R0000282 -2
 c288 R0000284 2 R0000283 -2
 c289 R0000285 2 R0000284 -2
 c290 R0000285 -2 R0000165 2
 c291 R0000286 4
 c292 R0000287 4 R0000286 -4
 c293 R0000288 4 R0000287 -4
 c294 R0000289 4 R0000288 -4
 c295 R0000290 2 R0000289 -2
 c296 R0000291 2 R0000290 -2
 c297 R0000292 2 R0000291 -2
 c298 R0000293 2 R0000292 -2
 c299 R0000294 2 R0000293 -2
 c300 R0000295 2 R0000294 -2
 c301 R0000296 2 R0000295 -2
 c302 R0000297 2 R0000296 -2
 c303 R0000298 2 R0000297 -2
 c304 R0000299 2 R0000298 -2
 c305 R0000300 2 R0000299 -2
 c306 R0000300 -2 R0000166 2
 c307 R0000301 4
 c308 R0000302 4 R0000301 -4
 c309 R0000303 4 R0000302 -4
 c310 R0000304 2 R0000303 -2
 c311 R0000305 2 R0000304 -2
 c312 R0000306 2 R0000305 -2
 c313 R0000307 2 R0000306 -2
 c314 R0000308 2 R0000307 -2
 c315 R0000309 2 R0000308 -2
 c316 R0000310 2 R0000309 -2
 c317 R0000311 2 R0000310 -2
 c318 R0000312 2 R0000311 -2
 c319 R0000313 2 R0000312 -2
 c320 R0000314 2 R0000313 -2
 c321 R0000314 -2 R0000167 2
 c322 R0000315 4
 c323 R0000316 4 R0000315 -4
 c324 R0000317 4 R0000316 -4
 c325 R0000318 4 R0000317 -4
 c326 R0000319 4 R0000318 -4
 c327 R0000320 4 R0000319 -4
 c328 R0000321 4 R0000320 -4
 c329 R0000322 2 R0000321 -2
 c330 R0000323 2 R0000322 -2
 c331 R0000324 2 R0000323 -2
 c332 R0000325 2 R0000324 -2
 c333 R0000326 2 R0000325 -2
 c334 R0000327 2 R0000326 -2
 c335 R0000328 2 R0000327 -2
 c336 R0000329 2 R0000328 -2
 c337 R0000330 2 R0000329 -2
 c338 R0000331 2 R0000330 -2
 c339 R0000332 2 R0000331 -2
 c340 R0000333 2 R0000332 -2
 c341 R0000334 2 R0000333 -2
 c342 R0000335 2 R0000334 -2
 c343 R0000335 -2 R0000168 2
 c344 R0000000 1 R0000001 1
 c345 R0000291 -4 R0000246 -4
 c345 R0000117 -4 R0000075 -4
 c345 R0000001 -1
 c346 R0000329 -4 R0000274 -4
 c346 R0000153 -4 R0000101 -4
 c346 R0000001 -1
 c347 R0000296 -4 R0000122 -4
 c347 R0000001 -1
 c348 R0000226 -4 R0000056 -4
 c348 R0000001 -1
 c349 R0000332 -4 R0000156 -4
 c349 R0000001 -1
 c350 R0000284 -4 R0000111 -4
 c350 R0000001 -1
 c351 R0000330 -4 R0000249 -4
 c351 R0000154 -4 R0000078 -4
 c351 R0000001 -1
 c352 R0000001 -1
 c353 R0000266 -4 R0000240 -4
 c353 R0000094 -4 R0000069 -4
 c353 R0000001 -1
 c354 R0000283 -4 R0000241 -4
 c354 R0000110 -4 R0000070 -4
 c354 R0000001 -1
 c355 R0000331 -4 R0000155 -4
 c355 R0000001 -1
 c356 R0000229 -4 R0000208 -4
 c356 R0000059 -4 R0000039 -4
 c356 R0000001 -1
 c357 R0000316 -4 R0000197 -4
 c357 R0000140 -4 R0000029 -4
 c357 R0000001 -1
 c358 R0000302 -4 R0000270 -4
 c358 R0000185 -4 R0000176 -4
 c358 R0000127 -4 R0000097 -4
 c358 R0000017 -4 R0000009 -4
 c358 R0000001 -1
 c359 R0000001 -1
 c360 R0000001 -1
 c361 R0000170 -4 R0000003 -4
 c361 R0000001 -1
 c362 R0000271 -4 R0000265 -4
 c362 R0000098 -4 R0000093 -4
 c362 R0000001 -1
 c363 R0000310 -4 R0000251 -4
 c363 R0000135 -4 R0000080 -4
 c363 R0000001 -1
 c364 R0000323 -4 R0000147 -4
 c364 R0000001 -1
 c365 R0000214 -4 R0000045 -4
 c365 R0000001 -1
 c366 R0000228 -4 R0000058 -4
 c366 R0000001 -1
 c367 R0000333 -4 R0000157 -4
 c367 R0000001 -1
 c368 R0000263 -4 R0000091 -4
 c368 R0000001 -1
 c369 R0000001 -1
 c370 R0000321 -4 R0000299 -4
 c370 R0000145 -4 R0000125 -4
 c370 R0000001 -1
 c371 R0000335 -4 R0000210 -4
 c371 R0000041 -4 R0000001 -1
 c372 R0000001 -1
 c373 R0000318 -4 R0000248 -4
 c373 R0000233 -4 R0000142 -4
 c373 R0000077 -4 R0000063 -4
 c373 R0000001 -1
 c374 R0000334 -4 R0000290 -4
 c374 R0000182 -4 R0000158 -4
 c374 R0000116 -4 R0000015 -4
 c374 R0000001 -1
 c375 R0000189 -4 R0000021 -4
 c375 R0000001 -1
 c376 R0000267 -4 R0000095 -4
 c376 R0000001 -1
 c377 R0000239 -4 R0000220 -4
 c377 R0000195 -4 R0000068 -4
 c377 R0000050 -4 R0000027 -4
 c377 R0000001 -1
 c378 R0000306 -4 R0000287 -4
 c378 R0000205 -4 R0000131 -4
 c378 R0000113 -4 R0000036 -4
 c378 R0000001 -1
 c379 R0000250 -4 R0000079 -4
 c379 R0000001 -1
 c380 R0000312 -4 R0000257 -4
 c380 R0000213 -4 R0000188 -4
 c380 R0000137 -4 R0000085 -4
 c380 R0000044 -4 R0000020 -4
 c380 R0000001 -1
 c381 R0000320 -4 R0000264 -4
 c381 R0000144 -4 R0000092 -4
 c381 R0000001 -1
 c382 R0000001 -1
 c383 R0000001 -1
 c384 R0000326 -4 R0000215 -4
 c384 R0000150 -4 R0000046 -4
 c384 R0000001 -1
 c385 R0000190 -4 R0000022 -4
 c385 R0000001 -1
 c386 R0000001 -1
 c387 R0000295 -4 R0000252 -4
 c387 R0000121 -4 R0000081 -4
 c387 R0000001 -1
 c388 R0000317 -4 R0000281 -4
 c388 R0000261 -4 R0000235 -4
 c388 R0000198 -4 R0000141 -4
 c388 R0000108 -4 R0000089 -4
 c388 R0000065 -4 R0000030 -4
 c388 R0000001 -1
 c389 R0000297 -4 R0000276 -4
 c389 R0000193 -4 R0000123 -4
 c389 R0000103 -4 R0000025 -4
 c389 R0000001 -1
 c390 R0000237 -4 R0000174 -4
 c390 R0000007 -4 R0000001 -1
 c391 R0000303 -4 R0000293 -4
 c391 R0000260 -4 R0000242 -4
 c391 R0000181 -4 R0000128 -4
 c391 R0000119 -4 R0000088 -4
 c391 R0000071 -4 R0000014 -4
 c391 R0000001 -1
 c392 R0000313 -4 R0000138 -4
 c392 R0000001 -1
 c393 R0000294 -4 R0000258 -4
 c393 R0000120 -4 R0000086 -4
 c393 R0000001 -1
 c394 R0000211 -4 R0000192 -4
 c394 R0000042 -4 R0000024 -4
 c394 R0000001 -1
 c395 R0000236 -4 R0000066 -4
 c395 R0000001 -1
 c396 R0000001 -1
 c397 R0000244 -4 R0000073 -4
 c397 R0000001 -1
 c398 R0000280 -4 R0000180 -4
 c398 R0000107 -4 R0000013 -4
 c398 R0000001 -1
 c399 R0000275 -4 R0000227 -4
 c399 R0000178 -4 R0000102 -4
 c399 R0000057 -4 R0000011 -4
 c399 R0000001 -1
 c400 R0000207 -4 R0000038 -4
 c400 R0000001 -1
 c401 R0000001 -1
 c402 R0000328 -4 R0000277 -4
 c402 R0000152 -4 R0000104 -4
 c402 R0000001 -1
 c403 R0000314 -4 R0000201 -4
 c403 R0000032 -4 R0000001 -1
 c404 R0000268 -4 R0000171 -4
 c404 R0000004 -4 R0000001 -1
 c405 R0000301 -4 R0000278 -4
 c405 R0000225 -4 R0000217 -4
 c405 R0000126 -4 R0000105 -4
 c405 R0000055 -4 R0000001 -1
 c406 R0000325 -4 R0000149 -4
 c406 R0000001 -1
 c407 R0000001 -1
 c408 R0000300 -4 R0000223 -4
 c408 R0000199 -4 R0000169 -4
 c408 R0000053 -4 R0000031 -4
 c408 R0000002 -4 R0000001 -1
 c409 R0000319 -4 R0000232 -4
 c409 R0000202 -4 R0000194 -4
 c409 R0000143 -4 R0000062 -4
 c409 R0000033 -4 R0000026 -4
 c409 R0000001 -1
 c410 R0000245 -4 R0000230 -4
 c410 R0000074 -4 R0000060 -4
 c410 R0000001 -1
 c411 R0000222 -4 R0000052 -4
 c411 R0000001 -1
 c412 R0000001 -1
 c413 R0000212 -4 R0000043 -4
 c413 R0000001 -1
 c414 R0000001 -1
 c415 R0000272 -4 R0000099 -4
 c415 R0000001 -1
 c416 R0000221 -4 R0000051 -4
 c416 R0000001 -1
 c417 R0000327 -4 R0000282 -4
 c417 R0000175 -4 R0000151 -4
 c417 R0000109 -4 R0000008 -4
 c417 R0000001 -1
 c418 R0000273 -4 R0000256 -4
 c418 R0000243 -4 R0000196 -4
 c418 R0000100 -4 R0000084 -4
 c418 R0000072 -4 R0000028 -4
 c418 R0000001 -1
 c419 R0000289 -4 R0000231 -4
 c419 R0000115 -4 R0000061 -4
 c419 R0000001 -1
 c420 R0000219 -4 R0000049 -4
 c420 R0000001 -1
 c421 R0000262 -4 R0000247 -4
 c421 R0000090 -4 R0000076 -4
 c421 R0000001 -1
 c422 R0000279 -4 R0000106 -4
 c422 R0000001 -1
 c423 R0000001 -1
 c424 R0000304 -4 R0000298 -4
 c424 R0000129 -4 R0000124 -4
 c424 R0000001 -1
 c425 R0000305 -4 R0000259 -4
 c425 R0000130 -4 R0000087 -4
 c425 R0000001 -1
 c426 R0000172 -4 R0000005 -4
 c426 R0000001 -1
 c427 R0000001 -1
 c428 R0000183 -4 R0000001 -1
 c429 R0000309 -4 R0000204 -4
 c429 R0000184 -4 R0000134 -4
 c429 R0000035 -4 R0000016 -4
 c429 R0000001 -1
 c430 R0000002 2
 c431 R0000003 2
 c432 R0000004 2
 c433 R0000005 2
 c434 R0000006 2
 c435 R0000007 2
 c436 R0000008 2
 c437 R0000009 2
 c438 R0000010 2
 c439 R0000011 2
 c440 R0000012 2
 c441 R0000013 2
 c442 R0000014 2
 c443 R0000015 2
 c444 R0000016 2
 c445 R0000017 2
 c446 R0000018 2
 c447 R0000019 2
 c448 R0000020 2
 c449 R0000021 2
 c450 R0000022 2
 c451 R0000023 2
 c452 R0000024 2
 c453 R0000025 2
 c454 R0000026 2
 c455 R0000027 2
 c456 R0000028 2
 c457 R0000029 2
 c458 R0000030 2
 c459 R0000031 2
 c460 R0000032 2
 c461 R0000033 2
 c462 R0000034 2
 c463 R0000035 2
 c464 R0000036 2
 c465 R0000037 2
 c466 R0000038 2
 c467 R0000039 2
 c468 R0000040 2
 c469 R0000041 2
 c470 R0000042 2
 c471 R0000043 2
 c472 R0000044 2
 c473 R0000045 2
 c474 R0000046 2
 c475 R0000047 2
 c476 R0000048 2
 c477 R0000049 2
 c478 R0000050 2
 c479 R0000051 2
 c480 R0000052 2
 c481 R0000053 2
 c482 R0000054 2
 c483 R0000055 2
 c484 R0000056 2
 c485 R0000057 2
 c486 R0000058 2
 c487 R0000059 2
 c488 R0000060 2
 c489 R0000061 2
 c490 R0000062 2
 c491 R0000063 2
 c492 R0000064 2
 c493 R0000065 2
 c494 R0000066 2
 c495 R0000067 2
 c496 R0000068 2
 c497 R0000069 2
 c498 R0000070 2
 c499 R0000071 2
 c500 R0000072 2
 c501 R0000073 2
 c502 R0000074 2
 c503 R0000075 2
 c504 R0000076 2
 c505 R0000077 2
 c506 R0000078 2
 c507 R0000079 2
 c508 R0000080 2
 c509 R0000081 2
 c510 R0000082 2
 c511 R0000083 2
 c512 R0000084 2
 c513 R0000085 2
 c514 R0000086 2
 c515 R0000087 2
 c516 R0000088 2
 c517 R0000089 2
 c518 R0000090 2
 c519 R0000091 2
 c520 R0000092 2
 c521 R0000093 2
 c522 R0000094 2
 c523 R0000095 2
 c524 R0000096 2
 c525 R0000097 2
 c526 R0000098 2
 c527 R0000099 2
 c528 R0000100 2
 c529 R0000101 2
 c530 R0000102 2
 c531 R0000103 2
 c532 R0000104 2
 c533 R0000105 2
 c534 R0000106 2
 c535 R0000107 2
 c536 R0000108 2
 c537 R0000109 2
 c538 R0000110 2
 c539 R0000111 2
 c540 R0000112 2
 c541 R0000113 2
 c542 R0000114 2
 c543 R0000115 2
 c544 R0000116 2
 c545 R0000117 2
 c546 R0000118 2
 c547 R0000119 2
 c548 R0000120 2
 c549 R0000121 2
 c550 R0000122 2
 c551 R0000123 2
 c552 R0000124 2
 c553 R0000125 2
 c554 R0000126 2
 c555 R0000127 2
 c556 R0000128 2
 c557 R0000129 2
 c558 R0000130 2
 c559 R0000131 2
 c560 R0000132 2
 c561 R0000133 2
 c562 R0000134 2
 c563 R0000135 2
 c564 R0000136 2
 c565 R0000137 2
 c566 R0000138 2
 c567 R0000139 2
 c568 R0000140 2
 c569 R0000141 2
 c570 R0000142 2
 c571 R0000143 2
 c572 R0000144 2
 c573 R0000145 2
 c574 R0000146 2
 c575 R0000147 2
 c576 R0000148 2
 c577 R0000149 2
 c578 R0000150 2
 c579 R0000151 2
 c580 R0000152 2
 c581 R0000153 2
 c582 R0000154 2
 c583 R0000155 2
 c584 R0000156 2
 c585 R0000157 2
 c586 R0000158 2
 c587 R0000159 2
 c588 R0000160 2
 c589 R0000161 2
 c590 R0000162 2
 c591 R0000163 2
 c592 R0000164 2
 c593 R0000165 2
 c594 R0000166 2
 c595 R0000167 2
 c596 R0000168 2
 c597 R0000169 2
 c598 R0000170 2
 c599 R0000171 2
 c600 R0000172 2
 c601 R0000173 2
 c602 R0000174 2
 c603 R0000175 2
 c604 R0000176 2
 c605 R0000177 2
 c606 R0000178 2
 c607 R0000179 2
 c608 R0000180 2
 c609 R0000181 2
 c610 R0000182 2
 c611 R0000183 2
 c612 R0000184 2
 c613 R0000185 2
 c614 R0000186 2
 c615 R0000187 2
 c616 R0000188 2
 c617 R0000189 2
 c618 R0000190 2
 c619 R0000191 2
 c620 R0000192 2
 c621 R0000193 2
 c622 R0000194 2
 c623 R0000195 2
 c624 R0000196 2
 c625 R0000197 2
 c626 R0000198 2
 c627 R0000199 2
 c628 R0000200 2
 c629 R0000201 2
 c630 R0000202 2
 c631 R0000203 2
 c632 R0000204 2
 c633 R0000205 2
 c634 R0000206 2
 c635 R0000207 2
 c636 R0000208 2
 c637 R0000209 2
 c638 R0000210 2
 c639 R0000211 2
 c640 R0000212 2
 c641 R0000213 2
 c642 R0000214 2
 c643 R0000215 2
 c644 R0000216 2
 c645 R0000217 2
 c646 R0000218 2
 c647 R0000219 2
 c648 R0000220 2
 c649 R0000221 2
 c650 R0000222 2
 c651 R0000223 2
 c652 R0000224 2
 c653 R0000225 2
 c654 R0000226 2
 c655 R0000227 2
 c656 R0000228 2
 c657 R0000229 2
 c658 R0000230 2
 c659 R0000231 2
 c660 R0000232 2
 c661 R0000233 2
 c662 R0000234 2
 c663 R0000235 2
 c664 R0000236 2
 c665 R0000237 2
 c666 R0000238 2
 c667 R0000239 2
 c668 R0000240 2
 c669 R0000241 2
 c670 R0000242 2
 c671 R0000243 2
 c672 R0000244 2
 c673 R0000245 2
 c674 R0000246 2
 c675 R0000247 2
 c676 R0000248 2
 c677 R0000249 2
 c678 R0000250 2
 c679 R0000251 2
 c680 R0000252 2
 c681 R0000253 2
 c682 R0000254 2
 c683 R0000255 2
 c684 R0000256 2
 c685 R0000257 2
 c686 R0000258 2
 c687 R0000259 2
 c688 R0000260 2
 c689 R0000261 2
 c690 R0000262 2
 c691 R0000263 2
 c692 R0000264 2
 c693 R0000265 2
 c694 R0000266 2
 c695 R0000267 2
 c696 R0000268 2
 c697 R0000269 2
 c698 R0000270 2
 c699 R0000271 2
 c700 R0000272 2
 c701 R0000273 2
 c702 R0000274 2
 c703 R0000275 2
 c704 R0000276 2
 c705 R0000277 2
 c706 R0000278 2
 c707 R0000279 2
 c708 R0000280 2
 c709 R0000281 2
 c710 R0000282 2
 c711 R0000283 2
 c712 R0000284 2
 c713 R0000285 2
 c714 R0000286 2
 c715 R0000287 2
 c716 R0000288 2
 c717 R0000289 2
 c718 R0000290 2
 c719 R0000291 2
 c720 R0000292 2
 c721 R0000293 2
 c722 R0000294 2
 c723 R0000295 2
 c724 R0000296 2
 c725 R0000297 2
 c726 R0000298 2
 c727 R0000299 2
 c728 R0000300 2
 c729 R0000301 2
 c730 R0000302 2
 c731 R0000303 2
 c732 R0000304 2
 c733 R0000305 2
 c734 R0000306 2
 c735 R0000307 2
 c736 R0000308 2
 c737 R0000309 2
 c738 R0000310 2
 c739 R0000311 2
 c740 R0000312 2
 c741 R0000313 2
 c742 R0000314 2
 c743 R0000315 2
 c744 R0000316 2
 c745 R0000317 2
 c746 R0000318 2
 c747 R0000319 2
 c748 R0000320 2
 c749 R0000321 2
 c750 R0000322 2
 c751 R0000323 2
 c752 R0000324 2
 c753 R0000325 2
 c754 R0000326 2
 c755 R0000327 2
 c756 R0000328 2
 c757 R0000329 2
 c758 R0000330 2
 c759 R0000331 2
 c760 R0000332 2
 c761 R0000333 2
 c762 R0000334 2
 c763 R0000335 2
RHS
 RHS1 R0000001 15 R0000002 -1.68
 RHS1 R0000003 -1.14 R0000004 -2.8
 RHS1 R0000005 -2.47 R0000006 1.29
 RHS1 R0000007 -2.46 R0000008 -2.35
 RHS1 R0000009 -1.41 R0000010 1.35
 RHS1 R0000011 -2.08 R0000012 2.59
 RHS1 R0000013 -1.68 R0000014 -2.34
 RHS1 R0000015 -1.48 R0000016 -1.89
 RHS1 R0000017 -2.36 R0000018 2.69
 RHS1 R0000019 1.3 R0000020 -1.34
 RHS1 R0000021 -2.61 R0000022 -2.55
 RHS1 R0000023 1.89 R0000024 -2.28
 RHS1 R0000025 -1.79 R0000026 -1.47
 RHS1 R0000027 -2.14 R0000028 -2.85
 RHS1 R0000029 -1.35 R0000030 -2.86
 RHS1 R0000031 -2.55 R0000032 -1.61
 RHS1 R0000033 -2.76 R0000034 2.77
 RHS1 R0000035 -1 R0000036 -1.96
 RHS1 R0000037 2.56 R0000038 -1.74
 RHS1 R0000039 -1.48 R0000040 2.68
 RHS1 R0000041 -2.31 R0000042 -1.27
 RHS1 R0000043 -2.79 R0000044 -1.86
 RHS1 R0000045 -1.78 R0000046 -2.9
 RHS1 R0000047 1.25 R0000048 1.08
 RHS1 R0000049 -1.59 R0000050 -1.43
 RHS1 R0000051 -1.77 R0000052 -1.78
 RHS1 R0000053 -1.34 R0000054 2.5
 RHS1 R0000055 -2.73 R0000056 -2.42
 RHS1 R0000057 -1.7 R0000058 -2.85
 RHS1 R0000059 -1.18 R0000060 -2.01
 RHS1 R0000061 -2.76 R0000062 -1.3
 RHS1 R0000063 -2.83 R0000064 1.14
 RHS1 R0000065 -2.12 R0000066 -2.14
 RHS1 R0000067 1.48 R0000068 -2.55
 RHS1 R0000069 -1.17 R0000070 -2.09
 RHS1 R0000071 -2.22 R0000072 -1.27
 RHS1 R0000073 -2.37 R0000074 -1.57
 RHS1 R0000075 -2.47 R0000076 -2.82
 RHS1 R0000077 -1.43 R0000078 -2.62
 RHS1 R0000079 -2.53 R0000080 -1.65
 RHS1 R0000081 -1.89 R0000082 2.83
 RHS1 R0000083 2.04 R0000084 -1.74
 RHS1 R0000085 -1.21 R0000086 -2.78
 RHS1 R0000087 -1.94 R0000088 -2.94
 RHS1 R0000089 -1.05 R0000090 -1.47
 RHS1 R0000091 -2.3 R0000092 -1.65
 RHS1 R0000093 -2.33 R0000094 -1.48
 RHS1 R0000095 -1.14 R0000096 2.36
 RHS1 R0000097 -2.4 R0000098 -2.09
 RHS1 R0000099 -2.36 R0000100 -1.57
 RHS1 R0000101 -1.58 R0000102 -2.41
 RHS1 R0000103 -1.16 R0000104 -1.82
 RHS1 R0000105 -2.44 R0000106 -2.66
 RHS1 R0000107 -1.4 R0000108 -2.66
 RHS1 R0000109 -2.82 R0000110 -1.79
 RHS1 R0000111 -1.97 R0000112 1.87
 RHS1 R0000113 -2.54 R0000114 1.26
 RHS1 R0000115 -1.74 R0000116 -1.64
 RHS1 R0000117 -2.17 R0000118 2.94
 RHS1 R0000119 -1.97 R0000120 -1.44
 RHS1 R0000121 -1.83 R0000122 -2.19
 RHS1 R0000123 -1.06 R0000124 -1.96
 RHS1 R0000125 -1.25 R0000126 -1.74
 RHS1 R0000127 -2.82 R0000128 -1.37
 RHS1 R0000129 -2.67 R0000130 -1.51
 RHS1 R0000131 -2.13 R0000132 1.9
 RHS1 R0000133 2.75 R0000134 -1.1
 RHS1 R0000135 -2.8 R0000136 2.24
 RHS1 R0000137 -2.48 R0000138 -1.08
 RHS1 R0000139 1.83 R0000140 -1.35
 RHS1 R0000141 -1.49 R0000142 -1.3
 RHS1 R0000143 -2.81 R0000144 -2.19
 RHS1 R0000145 -1.66 R0000146 1.45
 RHS1 R0000147 -1.94 R0000148 2.98
 RHS1 R0000149 -1.66 R0000150 -2.62
 RHS1 R0000151 -2.64 R0000152 -1.09
 RHS1 R0000153 -1.33 R0000154 -1.12
 RHS1 R0000155 -2.82 R0000156 -1.62
 RHS1 R0000157 -2.06 R0000158 -1.73
 RHS1 R0000169 -2.02 R0000170 -1.68
 RHS1 R0000171 -1.14 R0000172 -2.8
 RHS1 R0000173 1.53 R0000174 -2.71
 RHS1 R0000175 -2.46 R0000176 -2.35
 RHS1 R0000177 2.59 R0000178 -2.65
 RHS1 R0000179 1.92 R0000180 -1.41
 RHS1 R0000181 -1.68 R0000182 -2.34
 RHS1 R0000183 -1.48 R0000184 -1.92
 RHS1 R0000185 -1.89 R0000186 1.64
 RHS1 R0000187 2.69 R0000188 -2.7
 RHS1 R0000189 -1.34 R0000190 -2.61
 RHS1 R0000191 1.45 R0000192 -2.11
 RHS1 R0000193 -2.28 R0000194 -1.79
 RHS1 R0000195 -1.47 R0000196 -2.14
 RHS1 R0000197 -2.85 R0000198 -1.35
 RHS1 R0000199 -2.86 R0000200 1.45
 RHS1 R0000201 -1.49 R0000202 -1.61
 RHS1 R0000203 1.24 R0000204 -1.23
 RHS1 R0000205 -1 R0000206 2.04
 RHS1 R0000207 -1.44 R0000208 -1.74
 RHS1 R0000209 2.52 R0000210 -1.32
 RHS1 R0000211 -2.31 R0000212 -1.27
 RHS1 R0000213 -2.79 R0000214 -1.86
 RHS1 R0000215 -1.78 R0000216 1.1
 RHS1 R0000217 -2.75 R0000218 2.3
 RHS1 R0000219 -2.92 R0000220 -1.59
 RHS1 R0000221 -1.43 R0000222 -1.77
 RHS1 R0000223 -1.78 R0000224 2.66
 RHS1 R0000225 -1.5 R0000226 -2.73
 RHS1 R0000227 -2.42 R0000228 -1.7
 RHS1 R0000229 -2.85 R0000230 -1.18
 RHS1 R0000231 -2.01 R0000232 -2.76
 RHS1 R0000233 -1.3 R0000234 1.17
 RHS1 R0000235 -2.86 R0000236 -2.12
 RHS1 R0000237 -2.14 R0000238 2.08
 RHS1 R0000239 -2.52 R0000240 -2.55
 RHS1 R0000241 -1.17 R0000242 -2.09
 RHS1 R0000243 -2.22 R0000244 -1.27
 RHS1 R0000245 -2.37 R0000246 -1.57
 RHS1 R0000247 -2.47 R0000248 -2.82
 RHS1 R0000249 -1.43 R0000250 -2.62
 RHS1 R0000251 -2.53 R0000252 -1.65
 RHS1 R0000253 2.11 R0000254 2.83
 RHS1 R0000255 1.55 R0000256 -1.96
 RHS1 R0000257 -1.74 R0000258 -1.21
 RHS1 R0000259 -2.78 R0000260 -1.94
 RHS1 R0000261 -2.94 R0000262 -1.05
 RHS1 R0000263 -1.47 R0000264 -2.3
 RHS1 R0000265 -1.65 R0000266 -2.33
 RHS1 R0000267 -1.48 R0000268 -1.14
 RHS1 R0000269 1.33 R0000270 -1.64
 RHS1 R0000271 -2.4 R0000272 -2.09
 RHS1 R0000273 -2.36 R0000274 -1.57
 RHS1 R0000275 -1.58 R0000276 -2.41
 RHS1 R0000277 -1.16 R0000278 -1.82
 RHS1 R0000279 -2.44 R0000280 -2.66
 RHS1 R0000281 -1.4 R0000282 -2.66
 RHS1 R0000283 -2.82 R0000284 -1.79
 RHS1 R0000285 2.03 R0000286 1.98
 RHS1 R0000287 -2.13 R0000288 1.46
 RHS1 R0000289 -2.74 R0000290 -1.74
 RHS1 R0000291 -1.64 R0000292 1.83
 RHS1 R0000293 -1.06 R0000294 -1.97
 RHS1 R0000295 -1.44 R0000296 -1.83
 RHS1 R0000297 -2.19 R0000298 -1.06
 RHS1 R0000299 -1.96 R0000300 -1.25
 RHS1 R0000301 -2.14 R0000302 -1.74
 RHS1 R0000303 -2.82 R0000304 -1.37
 RHS1 R0000305 -2.67 R0000306 -1.51
 RHS1 R0000307 1.87 R0000308 1.9
 RHS1 R0000309 -1.25 R0000310 -1.1
 RHS1 R0000311 1.2 R0000312 -1.76
 RHS1 R0000313 -2.48 R0000314 -1.08
 RHS1 R0000315 2.18 R0000316 -2.17
 RHS1 R0000317 -1.35 R0000318 -1.49
 RHS1 R0000319 -1.3 R0000320 -2.81
 RHS1 R0000321 -2.19 R0000322 2.34
 RHS1 R0000323 -2.55 R0000324 2.06
 RHS1 R0000325 -1.02 R0000326 -1.66
 RHS1 R0000327 -2.62 R0000328 -2.64
 RHS1 R0000329 -1.09 R0000330 -1.33
 RHS1 R0000331 -1.12 R0000332 -2.82
 RHS1 R0000333 -1.62 R0000334 -2.06
 RHS1 R0000335 -1.73
BOUNDS
 UP BND1 c0 0.495
 UP BND1 c1 9.16
 UP BND1 c2 9.43
 UP BND1 c3 8.6
 UP BND1 c4 8.765
 UP BND1 c5 8.645
 UP BND1 c6 8.77
 UP BND1 c7 8.825
 UP BND1 c8 9.295
 UP BND1 c9 8.675
 UP BND1 c10 8.96
 UP BND1 c11 9.295
 UP BND1 c12 9.16
 UP BND1 c13 8.83
 UP BND1 c14 9.26
 UP BND1 c15 0.52
 UP BND1 c16 9.055
 UP BND1 c17 8.82
 UP BND1 c18 9.345
 UP BND1 c19 8.65
 UP BND1 c20 9.33
 UP BND1 c21 8.695
 UP BND1 c22 8.725
 UP BND1 c23 8.945
 UP BND1 c24 8.86
 UP BND1 c25 9.105
 UP BND1 c26 9.265
 UP BND1 c27 8.93
 UP BND1 c28 8.575
 UP BND1 c29 9.325
 UP BND1 c30 8.57
 UP BND1 c31 8.725
 UP BND1 c32 0.6275
 UP BND1 c33 4.5975
 UP BND1 c34 4.31
 UP BND1 c35 4.6925
 UP BND1 c36 4.75
 UP BND1 c37 4.51
 UP BND1 c38 4.64
 UP BND1 c39 4.565
 UP BND1 c40 4.63
 UP BND1 c41 4.67
 UP BND1 c42 4.4225
 UP BND1 c43 4.6825
 UP BND1 c44 4.3025
 UP BND1 c45 4.535
 UP BND1 c46 4.555
 UP BND1 c47 8.55
 UP BND1 c48 8.625
 UP BND1 c49 0.575
 UP BND1 c50 8.54
 UP BND1 c51 9.205
 UP BND1 c52 9.285
 UP BND1 c53 9.115
 UP BND1 c54 9.11
 UP BND1 c55 9.33
 UP BND1 c56 9.25
 UP BND1 c57 8.635
 UP BND1 c58 8.79
 UP BND1 c59 9.15
 UP BND1 c60 8.575
 UP BND1 c61 9.41
 UP BND1 c62 8.995
 UP BND1 c63 8.62
 UP BND1 c64 9.35
 UP BND1 c65 8.585
 UP BND1 c66 8.57
 UP BND1 c67 8.94
 UP BND1 c68 8.93
 UP BND1 c69 0.52
 UP BND1 c70 4.37
 UP BND1 c71 4.3625
 UP BND1 c72 4.7075
 UP BND1 c73 4.4775
 UP BND1 c74 4.445
 UP BND1 c75 4.6825
 UP BND1 c76 4.4075
 UP BND1 c77 4.6075
 UP BND1 c78 4.3825
 UP BND1 c79 4.295
 UP BND1 c80 4.6425
 UP BND1 c81 8.69
 UP BND1 c82 8.735
 UP BND1 c83 9.175
 UP BND1 c84 9.055
 UP BND1 c85 9.415
 UP BND1 c86 0.775
 UP BND1 c87 9.02
 UP BND1 c88 9.13
 UP BND1 c89 9.395
 UP BND1 c90 8.61
 UP BND1 c91 9.03
 UP BND1 c92 8.53
 UP BND1 c93 9.475
 UP BND1 c94 9.265
 UP BND1 c95 8.85
 UP BND1 c96 9.175
 UP BND1 c97 8.835
 UP BND1 c98 9.26
 UP BND1 c99 9.43
 UP BND1 c100 0.3325
 UP BND1 c101 4.59
 UP BND1 c102 4.4
 UP BND1 c103 4.4775
 UP BND1 c104 4.41
 UP BND1 c105 4.6075
 UP BND1 c106 4.605
 UP BND1 c107 4.3975
 UP BND1 c108 4.71
 UP BND1 c109 4.545
 UP BND1 c110 8.78
 UP BND1 c111 8.67
 UP BND1 c112 9.3
 UP BND1 c113 8.67
 UP BND1 c114 4.295
 UP BND1 c115 9.105
 UP BND1 c116 9.015
 UP BND1 c117 0.99
 UP BND1 c118 8.935
 UP BND1 c119 8.73
 UP BND1 c120 8.63
 UP BND1 c121 9.13
 UP BND1 c122 9.18
 UP BND1 c123 8.915
 UP BND1 c124 9.47
 UP BND1 c125 9.015
 UP BND1 c126 9.28
 UP BND1 c127 9.085
 UP BND1 c128 8.905
 UP BND1 c129 9.47
 UP BND1 c130 9.02
 UP BND1 c131 9.375
 UP BND1 c132 0.465
 UP BND1 c133 9.13
 UP BND1 c134 8.59
 UP BND1 c135 9.315
 UP BND1 c136 8.665
 UP BND1 c137 9.245
 UP BND1 c138 8.935
 UP BND1 c139 8.95
 UP BND1 c140 9.375
 UP BND1 c141 9.45
 UP BND1 c142 8.6
 UP BND1 c143 9.12
 UP BND1 c144 8.76
 UP BND1 c145 9.46
 UP BND1 c146 0.545
 UP BND1 c147 4.4575
 UP BND1 c148 4.6625
 UP BND1 c149 4.6275
 UP BND1 c150 4.675
 UP BND1 c151 4.2975
 UP BND1 c152 4.4525
 UP BND1 c153 4.585
 UP BND1 c154 4.3625
 UP BND1 c155 4.515
 UP BND1 c156 4.745
 UP BND1 c157 4.585
 UP BND1 c158 8.69
 UP BND1 c159 8.68
 UP BND1 c160 9.455
 UP BND1 c161 9.335
 UP BND1 c162 9.44
 UP BND1 c163 8.59
 UP BND1 c164 9.19
 UP BND1 c165 8.97
 UP BND1 c166 9.135
 UP BND1 c167 8.99
 UP BND1 c168 9.16
 UP BND1 c169 9.43
 UP BND1 c170 8.6
 UP BND1 c171 8.765
 UP BND1 c172 8.645
 UP BND1 c173 8.77
 UP BND1 c174 8.825
 UP BND1 c175 9.295
 UP BND1 c176 8.675
 UP BND1 c177 8.96
 UP BND1 c178 9.295
 UP BND1 c179 9.16
 UP BND1 c180 8.83
 UP BND1 c181 9.26
 UP BND1 c182 10
 UP BND1 c183 9.04
 UP BND1 c184 9.055
 UP BND1 c185 8.82
 UP BND1 c186 9.345
 UP BND1 c187 8.65
 UP BND1 c188 9.33
 UP BND1 c189 8.695
 UP BND1 c190 8.725
 UP BND1 c191 8.945
 UP BND1 c192 8.86
 UP BND1 c193 9.105
 UP BND1 c194 9.265
 UP BND1 c195 8.93
 UP BND1 c196 8.575
 UP BND1 c197 9.325
 UP BND1 c198 8.57
 UP BND1 c199 8.725
 UP BND1 c200 10
 UP BND1 c201 9.255
 UP BND1 c202 9.195
 UP BND1 c203 8.62
 UP BND1 c204 9.385
 UP BND1 c205 9.5
 UP BND1 c206 9.02
 UP BND1 c207 9.28
 UP BND1 c208 9.13
 UP BND1 c209 9.26
 UP BND1 c210 9.34
 UP BND1 c211 8.845
 UP BND1 c212 9.365
 UP BND1 c213 8.605
 UP BND1 c214 9.07
 UP BND1 c215 9.11
 UP BND1 c216 8.55
 UP BND1 c217 8.625
 UP BND1 c218 10
 UP BND1 c219 9.15
 UP BND1 c220 8.54
 UP BND1 c221 9.205
 UP BND1 c222 9.285
 UP BND1 c223 9.115
 UP BND1 c224 9.11
 UP BND1 c225 9.33
 UP BND1 c226 9.25
 UP BND1 c227 8.635
 UP BND1 c228 8.79
 UP BND1 c229 9.15
 UP BND1 c230 8.575
 UP BND1 c231 9.41
 UP BND1 c232 8.995
 UP BND1 c233 8.62
 UP BND1 c234 9.35
 UP BND1 c235 8.585
 UP BND1 c236 8.57
 UP BND1 c237 8.94
 UP BND1 c238 8.93
 UP BND1 c239 10
 UP BND1 c240 4.52
 UP BND1 c241 4.37
 UP BND1 c242 4.3625
 UP BND1 c243 4.7075
 UP BND1 c244 4.4775
 UP BND1 c245 4.445
 UP BND1 c246 4.6825
 UP BND1 c247 4.4075
 UP BND1 c248 4.6075
 UP BND1 c249 4.3825
 UP BND1 c250 4.295
 UP BND1 c251 4.6425
 UP BND1 c252 8.69
 UP BND1 c253 8.735
 UP BND1 c254 9.175
 UP BND1 c255 9.055
 UP BND1 c256 9.415
 UP BND1 c257 10
 UP BND1 c258 4.3875
 UP BND1 c259 4.51
 UP BND1 c260 4.565
 UP BND1 c261 4.6975
 UP BND1 c262 4.305
 UP BND1 c263 4.515
 UP BND1 c264 8.53
 UP BND1 c265 9.475
 UP BND1 c266 9.265
 UP BND1 c267 8.85
 UP BND1 c268 9.175
 UP BND1 c269 8.835
 UP BND1 c270 9.26
 UP BND1 c271 9.43
 UP BND1 c272 10
 UP BND1 c273 4.3325
 UP BND1 c274 9.18
 UP BND1 c275 8.8
 UP BND1 c276 8.955
 UP BND1 c277 8.82
 UP BND1 c278 9.215
 UP BND1 c279 9.21
 UP BND1 c280 8.795
 UP BND1 c281 4.71
 UP BND1 c282 9.09
 UP BND1 c283 8.78
 UP BND1 c284 8.67
 UP BND1 c285 9.3
 UP BND1 c286 8.67
 UP BND1 c287 8.59
 UP BND1 c288 9.105
 UP BND1 c289 9.015
 UP BND1 c290 10
 UP BND1 c291 4.495
 UP BND1 c292 4.4675
 UP BND1 c293 4.365
 UP BND1 c294 4.315
 UP BND1 c295 9.13
 UP BND1 c296 9.18
 UP BND1 c297 8.915
 UP BND1 c298 9.47
 UP BND1 c299 9.015
 UP BND1 c300 9.28
 UP BND1 c301 9.085
 UP BND1 c302 8.905
 UP BND1 c303 9.47
 UP BND1 c304 9.02
 UP BND1 c305 9.375
 UP BND1 c306 10
 UP BND1 c307 4.465
 UP BND1 c308 4.565
 UP BND1 c309 4.295
 UP BND1 c310 9.315
 UP BND1 c311 8.665
 UP BND1 c312 9.245
 UP BND1 c313 8.935
 UP BND1 c314 8.95
 UP BND1 c315 9.375
 UP BND1 c316 9.45
 UP BND1 c317 8.6
 UP BND1 c318 9.12
 UP BND1 c319 8.76
 UP BND1 c320 9.46
 UP BND1 c321 10
 UP BND1 c322 4.545
 UP BND1 c323 4.4575
 UP BND1 c324 4.6625
 UP BND1 c325 4.6275
 UP BND1 c326 4.675
 UP BND1 c327 4.2975
 UP BND1 c328 4.4525
 UP BND1 c329 9.17
 UP BND1 c330 8.725
 UP BND1 c331 9.03
 UP BND1 c332 9.49
 UP BND1 c333 9.17
 UP BND1 c334 8.69
 UP BND1 c335 8.68
 UP BND1 c336 9.455
 UP BND1 c337 9.335
 UP BND1 c338 9.44
 UP BND1 c339 8.59
 UP BND1 c340 9.19
 UP BND1 c341 8.97
 UP BND1 c342 9.135
 UP BND1 c343 10
 FR BND1 c344
 UP BND1 c345 1
 UP BND1 c346 1
 UP BND1 c347 1
 UP BND1 c348 1
 UP BND1 c349 1
 UP BND1 c350 1
 UP BND1 c351 1
 UP BND1 c352 1
 UP BND1 c353 1
 UP BND1 c354 1
 UP BND1 c355 1
 UP BND1 c356 1
 UP BND1 c357 1
 UP BND1 c358 1
 UP BND1 c359 1
 UP BND1 c360 1
 UP BND1 c361 1
 UP BND1 c362 1
 UP BND1 c363 1
 UP BND1 c364 1
 UP BND1 c365 1
 UP BND1 c366 1
 UP BND1 c367 1
 UP BND1 c368 1
 UP BND1 c369 1
 UP BND1 c370 1
 UP BND1 c371 1
 UP BND1 c372 1
 UP BND1 c373 1
 UP BND1 c374 1
 UP BND1 c375 1
 UP BND1 c376 1
 UP BND1 c377 1
 UP BND1 c378 1
 UP BND1 c379 1
 UP BND1 c380 1
 UP BND1 c381 1
 UP BND1 c382 1
 UP BND1 c383 1
 UP BND1 c384 1
 UP BND1 c385 1
 UP BND1 c386 1
 UP BND1 c387 1
 UP BND1 c388 1
 UP BND1 c389 1
 UP BND1 c390 1
 UP BND1 c391 1
 UP BND1 c392 1
 UP BND1 c393 1
 UP BND1 c394 1
 UP BND1 c395 1
 UP BND1 c396 1
 UP BND1 c397 1
 UP BND1 c398 1
 UP BND1 c399 1
 UP BND1 c400 1
 UP BND1 c401 1
 UP BND1 c402 1
 UP BND1 c403 1
 UP BND1 c404 1
 UP BND1 c405 1
 UP BND1 c406 1
 UP BND1 c407 1
 UP BND1 c408 1
 UP BND1 c409 1
 UP BND1 c410 1
 UP BND1 c411 1
 UP BND1 c412 1
 UP BND1 c413 1
 UP BND1 c414 1
 UP BND1 c415 1
 UP BND1 c416 1
 UP BND1 c417 1
 UP BND1 c418 1
 UP BND1 c419 1
 UP BND1 c420 1
 UP BND1 c421 1
 UP BND1 c422 1
 UP BND1 c423 1
 UP BND1 c424 1
 UP BND1 c425 1
 UP BND1 c426 1
 UP BND1 c427 1
 UP BND1 c428 1
 UP BND1 c429 1
ENDATA
